75
155
79
91
89
135
103
115
83
97
85
127
99
128
91
104
122
122
121
58
132
127
135
82
117
0
75
127
99
121
75
116
105
137
112
0
92
97
138
92
72
70
67
76
84
90
86
116
137
73
77
112
85
93
111
110
104
78
131
91
77
99
148
98
191
82
141
103
138
74
115
83
81
99
104
120
94
64
116
95
99
97
95
111
121
81
100
117
49
76
93
151
123
71
131
81
127
87
88
110
